Si
 1.0000000000000000
     7.5888959681484431    0.0000000000000000   -0.0000000000000000
    -0.0000000000000005    7.5517099927487150    0.0019585582427554
    -0.0000000000000118    0.0101793458307509   39.9350539681879013
 Si 
  32
Cartesian
  1.8972239900000001  2.4663184199999999 14.9880744900000007
  5.6916719799999997  2.7870970100000001 15.5530880200000006
  1.8972239900000001  4.7529975400000000 15.5187040100000004
  5.6916719799999997  5.0507217600000001 14.8947421900000005
  0.1075732100000000  1.9981444600000000 16.5030585000000016
  3.6868747800000001  1.9981444600000000 16.5030585000000016
  7.4711849800000003  5.5751034600000002 16.4069808899999998
  3.9121589700000001  5.5751034600000002 16.4069808899999998
  0.0066332500000000  7.5270120299999999 17.7490920599999988
  3.7878147300000000  7.5270120299999999 17.7490920599999988
  7.5735771999999999  3.8316050900000000 18.0050730700000017
  3.8097667500000001  3.8316050900000000 18.0050730700000017
  1.8972239900000001  7.4966419499999999 19.1808849399999986
  5.6916719799999997  7.5053284400000004 19.1504632299999997
  1.8972239900000001  3.8725547599999999 19.3417986299999995
  5.6916719799999997  3.8025177200000000 19.3952726400000017
  1.8972239900000001  1.8714441200000000 20.5412502500000009
  5.6916719799999997  1.8014070799999999 20.5947242599999996
  1.8972239900000001  5.7203433900000000 20.7880182200000014
  5.6916719799999997  5.7290298799999997 20.7575964999999982
  0.0153187700000000  1.8423567500000000 21.9314498200000010
  3.7791292200000002  1.8423567500000000 21.9314498200000010
  7.5822627100000002  5.6986597999999997 22.1893893899999988
  3.8010812399999998  5.6986597999999997 22.1893893899999988
  0.1177109900000000  0.0988583800000000 23.5295419999999993
  3.6767370000000001  0.0988583800000000 23.5295419999999993
  7.4813227600000003  3.6758173799999998 23.4334643900000010
  3.9020211900000001  3.6758173799999998 23.4334643900000010
  1.8972239900000001  0.6232400800000000 25.0417807000000003
  5.6916719799999997  0.9209643000000000 24.4178188799999987
  1.8972239900000001  2.8868648299999999 24.3834348600000013
  5.6916719799999997  3.2076434200000001 24.9484484000000002
