Si
 1.0000000000000000
     7.5189147616188734   -0.0000000000000012   -0.0027035411742376
    -0.0000000000000012    7.4140866078053254    0.0000000000001957
    -0.0163843008205486   -0.0000000000001725   47.4095337640393097
 Si 
  24
Cartesian
  0.0198103122194977  0.5585803798709983 20.0263783457711639
  3.7414633363662491  0.8701064087766573 20.6380792086219778
 -0.0179940444431668  2.8369368951255445 20.6394309792090915
  3.7792676930289120  3.1484629240312354 20.0250265751842456
  1.7508624083648583  0.0603315441737218 21.5911580850305818
  5.7519721606497480  0.0276975350770680 21.5019165323195338
  1.9925147798402827  3.6793457688250788 21.5032683029067613
  5.5103197891743019  3.6467117597284542 21.5898063144435604
  1.8714223649890525  1.9068568603838771 23.0324415552950370
  5.6308797457985058  1.8001864435182009 23.0310897847079019
  1.8724105410089160  5.5404537361718518 22.9769161660097261
  5.6318679218183787  5.5806761755355279 22.9755643954226230
 -0.0080779754049148  1.9068568603837792 24.3764163234509041
  3.7513794054045233  1.8001864435181747 24.3750645528637371
 -0.0090661514247920  5.5404537361718367 24.4319417127366449
  3.7503912293846358  5.5806761755354959 24.4305899421495170
  0.1124819812191343  0.0603315441735425 25.8176997937152812
  3.6302869905534121  0.0276975350769138 25.9042378052519915
 -0.1291703902560079  3.6793457688249660 25.9055895758391941
  3.8719393620285545  3.6467117597283765 25.8163480231282207
  1.8435340773646953  0.5585803798708945 27.3824795329739921
  5.6407958148367214  0.8701064087765903 26.7680751289492456
  1.8813384340272852  2.8369368951252563 26.7694268995364446
  5.6029914581741531  3.1484629240309219 27.3811277623869316
