Si primitive cell
1.0
0.0000000000  2.7155000000  2.7155000000
2.7155000000  0.0000000000  2.7155000000
2.7155000000  2.7155000000  0.0000000000
Si
2
Direct
0.0000000000  0.0000000000  0.0000000000
0.2500000000  0.2500000000  0.2500000000